CMD:
./solvers/bin/cadical --plain --no-reduce -t 1600 ./data/cnfs//abp4p2ff/abp4p2ff.73.cnf

c --- [ banner ] -------------------------------------------------------------
c 
c CaDiCaL SAT Solver
c Copyright (c) 2016-2024
c A. Biere, M. Fleury, N. Froleyks, K. Fazekas, F. Pollitt, T. Faller
c JKU Linz, University of Freiburg, TU Wien
c 
c Version 2.1.3 5296d3d2a9bf48c154ab2acb5e44625776d821bf
c g++ (Gentoo 12.3.1_p20230526 p2) 12.3.1 20230526 -Wall -Wextra -O3 -DNDEBUG
c Sat Aug 9 07:26:21 PDT 2025 Linux cedar2.int.cedar.computecanada.ca 5.14.0-362.24.2.el9_3.x86_64 x86_64
c 
c --- [ limit ] --------------------------------------------------------------
c 
c setting time limit to 1600 seconds real time (due to '-t 1600')
c 
c --- [ parsing input ] ------------------------------------------------------
c 
c reading DIMACS file from './data/cnfs//abp4p2ff/abp4p2ff.73.cnf'
c opening file to read './data/cnfs//abp4p2ff/abp4p2ff.73.cnf'
c found 'p cnf 65787 184339' header
c parsed 184339 clauses in 0.03 seconds process time
c 
c --- [ options ] ------------------------------------------------------------
c 
c   --compact=false                (different from default 'true')
c   --decompose=false              (different from default 'true')
c   --deduplicate=false            (different from default 'true')
c   --elim=false                   (different from default 'true')
c   --probe=false                  (different from default 'true')
c   --reduce=false                 (different from default 'true')
c   --subsume=false                (different from default 'true')
c   --ternary=false                (different from default 'true')
c   --transred=false               (different from default 'true')
c   --vivify=false                 (different from default 'true')
c 
c --- [ solving ] ------------------------------------------------------------
c 
c time measured in process time since initialization
c 
c  seconds  reductions  redundant  irredundant
c         MB    restarts       trail       variables
c          level   conflicts       glue         remaining
c 
c *  0.03 32  0 0   0    0    0  0% 0 179883 49497 75%
c {  0.03 33  0 0   0    0    0  0% 0 179883 49497 75%
c i  0.03 33  1 0   0    1    0 26% 0 179883 49496 75%
c i  0.03 33 69 0   0    5    3 27% 1 179883 49495 75%
c i  0.03 33 84 0   0   22   19 27% 2 179883 49494 75%
c i  0.07 34 228 0  30  702  687 56% 2 179883 49493 75%
c i  0.07 34 225 0  35  716  697 55% 2 179883 49486 75%
c i  0.07 34 224 0  35  717  697 55% 2 179883 49479 75%
c i  0.07 34 223 0  36  721  699 55% 2 179883 49464 75%
c i  0.08 34 213 0  59  830  802 54% 2 179883 49456 75%
c }  0.09 34 194 0  97 1001  962 51% 2 179883 49456 75%
c [  0.09 34  0 0  97 1001  962  0% 0 179883 49456 75%
c O  0.09 34 54 0  97 1002  963 45% 1 179883 49456 75%
c i  0.15 34 597 0  98 2312 2228 84% 3 179883 49455 75%
c i  0.15 34 676 0  98 2568 2471 84% 3 179883 49454 75%
c ]  0.17 34 580 0  98 3001 2838 77% 3 179883 49454 75%
c {  0.17 34 194 0  98 3001 2838 51% 2 179883 49454 75%
c F  0.17 34 194 0  99 3003 2840 51% 2 179883 49454 75%
c i  0.20 34 153 0 200 3446 3259 46% 2 179883 49448 75%
c i  0.22 35 140 0 276 3725 3520 44% 2 179883 49447 75%
c 
c  seconds   reductions  redundant  irredundant
c         MB     restarts       trail       variables
c           level   conflicts       glue         remaining
c 
c i  0.23 35 135 0 306 3841 3623 44% 3 179883 49446 75%
c i  0.24 35 132 0 317 3889 3668 43% 3 179883 49445 75%
c i  0.24 35 131 0 318 3892 3670 43% 3 179883 49444 75%
c i  0.25 35 128 0 334 4081 3849 43% 3 179883 49443 75%
c i  0.25 35 127 0 334 4101 3866 43% 3 179883 49442 75%
c i  0.25 35 119 0 360 4267 4013 42% 3 179883 49428 75%
c i  0.25 35 119 0 360 4271 4013 42% 3 179883 49396 75%
c i  0.25 35 119 0 360 4272 4013 42% 3 179883 49390 75%
c i  0.26 35 114 0 364 4401 4130 42% 3 179883 49389 75%
c i  0.28 35 106 0 437 4764 4459 41% 3 179883 49388 75%
c i  0.29 35 99 0 477 5074 4745 39% 3 179883 49387 75%
c i  0.32 35 92 0 558 5575 5194 39% 3 179883 49384 75%
c #  0.35 35 93 0 613 6006 5585 39% 4 179883 49384 75%
c i  0.38 35 93 0 638 6700 6215 39% 4 179883 49383 75%
c }  0.39 35 91 0 646 7002 6484 39% 4 179883 49383 75%
c [  0.39 35 580 0 646 7002 6484 77% 3 179883 49383 75%
c i  0.39 35 569 0 646 7043 6523 76% 3 179883 49382 75%
c i  0.49 36 348 0 648 9596 8875 57% 8 179883 49381 75%
c i  0.49 36 342 0 648 9803 9059 56% 8 179883 49380 75%
c I  0.50 36 336 0 648 10010 9238 55% 8 179883 49380 75%
c 
c  seconds   reductions    redundant  irredundant
c         MB     restarts         trail       variables
c           level    conflicts        glue         remaining
c 
c i  0.55 36 274 0 650 11512 10570 50% 8 179883 49379 75%
c ]  0.58 36 288 0 650 12271 11294 54% 7 179883 49379 75%
c 1  0.58 36 288 0 650 12271 11294 54% 7 179883 49379 75%
c 
... skipped 5741 lines ...
v 65217 -65218 65219 -65220 -65221 -65222 -65223 -65224 -65225 65226 65227
v -65228 -65229 -65230 65231 -65232 -65233 -65234 65235 -65236 -65237 -65238
v -65239 65240 -65241 65242 65243 -65244 -65245 65246 -65247 65248 65249
v -65250 -65251 65252 -65253 -65254 65255 -65256 -65257 65258 -65259 65260
v -65261 -65262 65263 -65264 65265 65266 -65267 -65268 65269 -65270 65271
v -65272 65273 -65274 -65275 -65276 -65277 -65278 -65279 65280 65281 -65282
v -65283 -65284 -65285 -65286 -65287 -65288 65289 65290 -65291 -65292 -65293
v -65294 -65295 -65296 65297 65298 -65299 -65300 -65301 -65302 -65303 65304
v -65305 -65306 65307 -65308 65309 -65310 -65311 -65312 65313 65314 -65315
v -65316 -65317 -65318 -65319 -65320 65321 65322 -65323 -65324 -65325 -65326
v -65327 65328 -65329 -65330 65331 65332 -65333 -65334 -65335 65336 -65337
v -65338 65339 65340 -65341 -65342 -65343 65344 -65345 -65346 65347 65348
v -65349 -65350 -65351 -65352 65353 65354 -65355 -65356 -65357 -65358 -65359
v 65360 -65361 -65362 65363 65364 -65365 -65366 -65367 -65368 65369 65370
v -65371 -65372 -65373 -65374 -65375 65376 -65377 -65378 65379 65380 -65381
v -65382 -65383 65384 -65385 -65386 65387 65388 -65389 -65390 -65391 -65392
v 65393 65394 -65395 -65396 -65397 -65398 -65399 -65400 65401 65402 -65403
v -65404 -65405 -65406 -65407 -65408 65409 65410 -65411 -65412 -65413 -65414
v -65415 -65416 65417 65418 -65419 -65420 -65421 -65422 -65423 -65424 65425
v 65426 -65427 -65428 -65429 -65430 -65431 65432 -65433 -65434 65435 65436
v -65437 -65438 -65439 -65440 65441 65442 -65443 -65444 -65445 -65446 -65447
v -65448 65449 65450 -65451 -65452 -65453 -65454 -65455 -65456 65457 65458
v -65459 -65460 -65461 -65462 -65463 -65464 65465 65466 -65467 -65468 -65469
v -65470 -65471 -65472 65473 65474 -65475 -65476 -65477 -65478 -65479 65480
v -65481 -65482 65483 65484 -65485 -65486 -65487 -65488 65489 65490 -65491
v -65492 -65493 -65494 -65495 -65496 65497 65498 -65499 -65500 -65501 -65502
v -65503 -65504 65505 65506 -65507 -65508 -65509 -65510 -65511 65512 -65513
v -65514 65515 65516 -65517 -65518 -65519 65520 -65521 -65522 65523 65524
v -65525 -65526 -65527 -65528 65529 65530 -65531 -65532 -65533 -65534 -65535
v 65536 -65537 -65538 65539 65540 -65541 -65542 65543 -65544 -65545 -65546
v 65547 -65548 -65549 65550 65551 -65552 -65553 65554 -65555 -65556 -65557
v 65558 -65559 -65560 65561 65562 -65563 -65564 65565 -65566 -65567 -65568
v -65569 65570 65571 -65572 -65573 -65574 65575 -65576 -65577 -65578 -65579
v 65580 -65581 -65582 65583 65584 65585 -65586 -65587 -65588 65589 -65590
v -65591 -65592 -65593 65594 65595 -65596 65597 -65598 -65599 -65600 65601
v -65602 -65603 -65604 -65605 -65606 65607 65608 -65609 65610 -65611 -65612
v -65613 65614 -65615 -65616 -65617 -65618 -65619 65620 65621 -65622 65623
v -65624 -65625 -65626 65627 -65628 -65629 -65630 -65631 65632 -65633 -65634
v 65635 -65636 -65637 -65638 65639 -65640 65641 -65642 -65643 -65644 -65645
v 65646 65647 -65648 -65649 65650 65651 -65652 -65653 -65654 -65655 -65656
v -65657 -65658 65659 65660 -65661 -65662 65663 65664 -65665 -65666 -65667
v -65668 -65669 -65670 -65671 65672 65673 -65674 -65675 65676 65677 -65678
v -65679 -65680 -65681 -65682 -65683 65684 65685 65686 -65687 65688 -65689
v 65690 -65691 65692 -65693 65694 -65695 65696 -65697 65698 -65699 -65700
v -65701 -65702 -65703 -65704 -65705 -65706 -65707 -65708 65709 -65710 -65711
v -65712 -65713 65714 -65715 -65716 -65717 65718 -65719 -65720 65721 -65722
v 65723 65724 -65725 65726 -65727 -65728 -65729 65730 -65731 -65732 -65733
v -65734 65735 65736 -65737 -65738 65739 -65740 -65741 -65742 -65743 -65744
v 65745 65746 -65747 -65748 65749 -65750 -65751 -65752 -65753 -65754 65755
v -65756 65757 -65758 65759 -65760 65761 -65762 -65763 -65764 -65765 -65766
v 65767 65768 -65769 -65770 -65771 65772 -65773 -65774 65775 65776 -65777
v -65778 65779 -65780 -65781 -65782 -65783 -65784 -65785 65786 -65787 0
c 
c --- [ run-time profiling ] -------------------------------------------------
c 
c process time taken by individual solving procedures
c (percentage relative to process time for solving)
c 
c         0.55   99.98% search
c         0.28   50.28% unstable
c         0.27   49.14% stable
c         0.03    5.48% parse
c         0.00    0.54% lucky
c         0.00    0.00% simplify
c   =================================
c         0.55   94.22% solve
c 
c last line shows process time for solving
c (percentage relative to total process time)
c 
c --- [ statistics ] ---------------------------------------------------------
c 
c chronological:              5713        46.56 %  of conflicts
c conflicts:                 12271     22355.78    per second
c decisions:                 69965    127464.95    per second
c fixed:                     16408        24.94 %  of all variables
c learned:                   11811        96.25 %  per conflict
c learned_lits:             202895       100.00 %  learned literals
c minimized:                     0         0.00 %  learned literals
c shrunken:                  19467         9.59 %  learned literals
c minishrunken:              25287        12.46 %  learned literals
c otfs:                        110         0.90 %  of conflict
c propagations:            9090027        16.56 M  per second
c rephased:                      4      3067.75    interval
c restarts:                    650        18.88    interval
c stabilizing:                   2        59.24 %  of conflicts
c subsumed:                    485         0.25 %  of all clauses
c strengthened:                110         0.06 %  of all clauses
c 
c seconds are measured in process time for solving
c 
c --- [ resources ] ----------------------------------------------------------
c 
c total process time since initialization:         0.58    seconds
c total real time since initialization:            0.59    seconds
c maximum resident set size of process:           34.61    MB
c 
c --- [ shutting down ] ------------------------------------------------------
c 
c exit 10
